RobustCbss/GLKH-1.1/TMP/mEgtspf.pid9130.atsp
NAME : mEgtspf.pid9130.gtsp
TYPE : ATSP
DIMENSION : 60
EDGE_WEIGHT_TYPE : EXPLICIT
EDGE_WEIGHT_FORMAT : FULL_MATRIX
EDGE_WEIGHT_SECTION
999999 5368709 5368709 5368709 5368709 5368709 5368709 5368709 5368709 5368709 5368709 5368709 5368709 5368709 5368709 5368709 5368709 5368709 5368709 5368709 5368761 5368762 5368763 5368762 5368787 5368788 5368787 5368786 5368786 5368785 5368784 5368785 5368743 5368744 5368745 5368744 5368763 5368762 5368763 5368764 5368760 5368761 5368760 5368759 5368771 5368772 5368773 5368772 5368767 5368766 5368765 5368766 5368734 5368735 5368736 5368735 5368770 5368769 5368768 5368769 
5368709 999999 5368709 5368709 5368709 5368709 5368709 5368709 5368709 5368709 5368709 5368709 5368709 5368709 5368709 5368709 5368709 5368709 5368709 5368709 5368757 5368758 5368759 5368758 5368725 5368726 5368725 5368724 5368850 5368849 5368848 5368849 5368807 5368808 5368809 5368808 5368827 5368826 5368827 5368828 5368756 5368757 5368756 5368755 5368715 5368714 5368713 5368714 5368763 5368762 5368761 5368762 5368752 5368753 5368754 5368753 5368834 5368833 5368832 5368833 
5368709 5368709 999999 5368709 5368709 5368709 5368709 5368709 5368709 5368709 5368709 5368709 5368709 5368709 5368709 5368709 5368709 5368709 5368709 5368709 5368732 5368733 5368734 5368733 5368748 5368749 5368748 5368747 5368825 5368824 5368823 5368824 5368782 5368783 5368784 5368783 5368802 5368801 5368802 5368803 5368731 5368732 5368731 5368730 5368732 5368733 5368734 5368733 5368738 5368737 5368736 5368737 5368727 5368728 5368729 5368728 5368809 5368808 5368807 5368808 
5368709 5368709 5368709 999999 5368709 5368709 5368709 5368709 5368709 5368709 5368709 5368709 5368709 5368709 5368709 5368709 5368709 5368709 5368709 5368709 5368728 5368729 5368730 5368729 5368774 5368775 5368774 5368773 5368841 5368840 5368839 5368840 5368798 5368799 5368800 5368799 5368818 5368817 5368818 5368819 5368717 5368716 5368717 5368718 5368758 5368759 5368760 5368759 5368716 5368715 5368714 5368715 5368743 5368744 5368745 5368744 5368825 5368824 5368823 5368824 
5368709 5368709 5368709 5368709 999999 5368709 5368709 5368709 5368709 5368709 5368709 5368709 5368709 5368709 5368709 5368709 5368709 5368709 5368709 5368709 5368721 5368722 5368723 5368722 5368767 5368768 5368767 5368766 5368834 5368833 5368832 5368833 5368791 5368792 5368793 5368792 5368811 5368810 5368811 5368812 5368712 5368713 5368712 5368711 5368751 5368752 5368753 5368752 5368719 5368718 5368717 5368718 5368736 5368737 5368738 5368737 5368818 5368817 5368816 5368817 
5368709 5368709 5368709 5368709 5368709 999999 5368709 5368709 5368709 5368709 5368709 5368709 5368709 5368709 5368709 5368709 5368709 5368709 5368709 5368709 5368721 5368720 5368721 5368722 5368781 5368782 5368781 5368780 5368848 5368847 5368846 5368847 5368805 5368806 5368807 5368806 5368825 5368824 5368825 5368826 5368734 5368735 5368734 5368733 5368765 5368766 5368767 5368766 5368741 5368740 5368739 5368740 5368750 5368751 5368752 5368751 5368832 5368831 5368830 5368831 
5368709 5368709 5368709 5368709 5368709 5368709 999999 5368709 5368709 5368709 5368709 5368709 5368709 5368709 5368709 5368709 5368709 5368709 5368709 5368709 5368731 5368732 5368733 5368732 5368763 5368764 5368763 5368762 5368830 5368829 5368828 5368829 5368787 5368788 5368789 5368788 5368807 5368806 5368807 5368808 5368732 5368733 5368732 5368731 5368747 5368748 5368749 5368748 5368739 5368738 5368737 5368738 5368732 5368733 5368734 5368733 5368814 5368813 5368812 5368813 
5368709 5368709 5368709 5368709 5368709 5368709 5368709 999999 5368709 5368709 5368709 5368709 5368709 5368709 5368709 5368709 5368709 5368709 5368709 5368709 5368730 5368731 5368732 5368731 5368776 5368777 5368776 5368775 5368843 5368842 5368841 5368842 5368800 5368801 5368802 5368801 5368820 5368819 5368820 5368821 5368719 5368718 5368719 5368720 5368760 5368761 5368762 5368761 5368712 5368713 5368714 5368713 5368745 5368746 5368747 5368746 5368827 5368826 5368825 5368826 
5368709 5368709 5368709 5368709 5368709 5368709 5368709 5368709 999999 5368709 5368709 5368709 5368709 5368709 5368709 5368709 5368709 5368709 5368709 5368709 5368753 5368754 5368755 5368754 5368779 5368780 5368779 5368778 5368794 5368793 5368792 5368793 5368751 5368752 5368753 5368752 5368771 5368770 5368771 5368772 5368752 5368753 5368752 5368751 5368763 5368764 5368765 5368764 5368759 5368758 5368757 5368758 5368726 5368727 5368728 5368727 5368778 5368777 5368776 5368777 
5368709 5368709 5368709 5368709 5368709 5368709 5368709 5368709 5368709 999999 5368709 5368709 5368709 5368709 5368709 5368709 5368709 5368709 5368709 5368709 5368843 5368844 5368845 5368844 5368869 5368870 5368869 5368868 5368718 5368719 5368720 5368719 5368761 5368760 5368759 5368760 5368759 5368758 5368759 5368760 5368842 5368843 5368842 5368841 5368853 5368854 5368855 5368854 5368849 5368848 5368847 5368848 5368816 5368817 5368818 5368817 5368736 5368737 5368736 5368735 
5368709 5368709 5368709 5368709 5368709 5368709 5368709 5368709 5368709 5368709 999999 5368709 5368709 5368709 5368709 5368709 5368709 5368709 5368709 5368709 5368838 5368839 5368840 5368839 5368864 5368865 5368864 5368863 5368713 5368714 5368715 5368714 5368756 5368755 5368754 5368755 5368754 5368753 5368754 5368755 5368837 5368838 5368837 5368836 5368848 5368849 5368850 5368849 5368844 5368843 5368842 5368843 5368811 5368812 5368813 5368812 5368731 5368732 5368731 5368730 
5368709 5368709 5368709 5368709 5368709 5368709 5368709 5368709 5368709 5368709 5368709 999999 5368709 5368709 5368709 5368709 5368709 5368709 5368709 5368709 5368788 5368789 5368790 5368789 5368814 5368815 5368814 5368813 5368759 5368758 5368757 5368758 5368720 5368719 5368720 5368721 5368736 5368735 5368736 5368737 5368787 5368788 5368787 5368786 5368798 5368799 5368800 5368799 5368794 5368793 5368792 5368793 5368761 5368762 5368763 5368762 5368743 5368742 5368741 5368742 
5368709 5368709 5368709 5368709 5368709 5368709 5368709 5368709 5368709 5368709 5368709 5368709 999999 5368709 5368709 5368709 5368709 5368709 5368709 5368709 5368839 5368840 5368841 5368840 5368865 5368866 5368865 5368864 5368716 5368717 5368716 5368715 5368757 5368756 5368755 5368756 5368755 5368754 5368755 5368756 5368838 5368839 5368838 5368837 5368849 5368850 5368851 5368850 5368845 5368844 5368843 5368844 5368812 5368813 5368814 5368813 5368732 5368733 5368732 5368731 
5368709 5368709 5368709 5368709 5368709 5368709 5368709 5368709 5368709 5368709 5368709 5368709 5368709 999999 5368709 5368709 5368709 5368709 5368709 5368709 5368740 5368739 5368740 5368741 5368800 5368801 5368800 5368799 5368867 5368866 5368865 5368866 5368824 5368825 5368826 5368825 5368844 5368843 5368844 5368845 5368753 5368754 5368753 5368752 5368784 5368785 5368786 5368785 5368760 5368759 5368758 5368759 5368769 5368770 5368771 5368770 5368851 5368850 5368849 5368850 
5368709 5368709 5368709 5368709 5368709 5368709 5368709 5368709 5368709 5368709 5368709 5368709 5368709 5368709 999999 5368709 5368709 5368709 5368709 5368709 5368729 5368730 5368731 5368730 5368761 5368762 5368761 5368760 5368828 5368827 5368826 5368827 5368785 5368786 5368787 5368786 5368805 5368804 5368805 5368806 5368730 5368731 5368730 5368729 5368745 5368746 5368747 5368746 5368737 5368736 5368735 5368736 5368730 5368731 5368732 5368731 5368812 5368811 5368810 5368811 
5368709 5368709 5368709 5368709 5368709 5368709 5368709 5368709 5368709 5368709 5368709 5368709 5368709 5368709 5368709 999999 5368709 5368709 5368709 5368709 5368733 5368734 5368735 5368734 5368749 5368750 5368749 5368748 5368824 5368823 5368822 5368823 5368781 5368782 5368783 5368782 5368801 5368800 5368801 5368802 5368732 5368733 5368732 5368731 5368733 5368734 5368735 5368734 5368739 5368738 5368737 5368738 5368726 5368727 5368728 5368727 5368808 5368807 5368806 5368807 
5368709 5368709 5368709 5368709 5368709 5368709 5368709 5368709 5368709 5368709 5368709 5368709 5368709 5368709 5368709 5368709 999999 5368709 5368709 5368709 5368767 5368768 5368769 5368768 5368793 5368794 5368793 5368792 5368780 5368779 5368778 5368779 5368737 5368738 5368739 5368738 5368757 5368756 5368757 5368758 5368766 5368767 5368766 5368765 5368777 5368778 5368779 5368778 5368773 5368772 5368771 5368772 5368740 5368741 5368742 5368741 5368764 5368763 5368762 5368763 
5368709 5368709 5368709 5368709 5368709 5368709 5368709 5368709 5368709 5368709 5368709 5368709 5368709 5368709 5368709 5368709 5368709 999999 5368709 5368709 5368762 5368763 5368764 5368763 5368718 5368719 5368718 5368717 5368855 5368854 5368853 5368854 5368812 5368813 5368814 5368813 5368832 5368831 5368832 5368833 5368761 5368762 5368761 5368760 5368720 5368719 5368718 5368719 5368768 5368767 5368766 5368767 5368757 5368758 5368759 5368758 5368839 5368838 5368837 5368838 
5368709 5368709 5368709 5368709 5368709 5368709 5368709 5368709 5368709 5368709 5368709 5368709 5368709 5368709 5368709 5368709 5368709 5368709 999999 5368709 5368737 5368736 5368737 5368738 5368797 5368798 5368797 5368796 5368864 5368863 5368862 5368863 5368821 5368822 5368823 5368822 5368841 5368840 5368841 5368842 5368750 5368751 5368750 5368749 5368781 5368782 5368783 5368782 5368757 5368756 5368755 5368756 5368766 5368767 5368768 5368767 5368848 5368847 5368846 5368847 
5368709 5368709 5368709 5368709 5368709 5368709 5368709 5368709 5368709 5368709 5368709 5368709 5368709 5368709 5368709 5368709 5368709 5368709 5368709 999999 5368803 5368804 5368805 5368804 5368829 5368830 5368829 5368828 5368744 5368743 5368742 5368743 5368721 5368720 5368719 5368720 5368719 5368718 5368719 5368720 5368802 5368803 5368802 5368801 5368813 5368814 5368815 5368814 5368809 5368808 5368807 5368808 5368776 5368777 5368778 5368777 5368728 5368727 5368726 5368727 
5368709 5368709 5368709 5368709 5368709 5368709 5368709 5368709 5368709 5368709 5368709 5368709 5368709 5368709 5368709 5368709 5368709 5368709 5368709 5368709 999999 0 10737418 10737418 5368770 5368771 5368770 5368769 5368837 5368836 5368835 5368836 5368794 5368795 5368796 5368795 5368814 5368813 5368814 5368815 5368723 5368724 5368723 5368722 5368754 5368755 5368756 5368755 5368730 5368729 5368728 5368729 5368739 5368740 5368741 5368740 5368821 5368820 5368819 5368820 
5368709 5368709 5368709 5368709 5368709 5368709 5368709 5368709 5368709 5368709 5368709 5368709 5368709 5368709 5368709 5368709 5368709 5368709 5368709 5368709 10737418 999999 0 10737418 5368769 5368770 5368769 5368768 5368836 5368835 5368834 5368835 5368793 5368794 5368795 5368794 5368813 5368812 5368813 5368814 5368722 5368723 5368722 5368721 5368753 5368754 5368755 5368754 5368729 5368728 5368727 5368728 5368738 5368739 5368740 5368739 5368820 5368819 5368818 5368819 
5368709 5368709 5368709 5368709 5368709 5368709 5368709 5368709 5368709 5368709 5368709 5368709 5368709 5368709 5368709 5368709 5368709 5368709 5368709 5368709 10737418 10737418 999999 0 5368770 5368771 5368770 5368769 5368837 5368836 5368835 5368836 5368794 5368795 5368796 5368795 5368814 5368813 5368814 5368815 5368723 5368724 5368723 5368722 5368754 5368755 5368756 5368755 5368730 5368729 5368728 5368729 5368739 5368740 5368741 5368740 5368821 5368820 5368819 5368820 
5368709 5368709 5368709 5368709 5368709 5368709 5368709 5368709 5368709 5368709 5368709 5368709 5368709 5368709 5368709 5368709 5368709 5368709 5368709 5368709 0 10737418 10737418 999999 5368771 5368772 5368771 5368770 5368838 5368837 5368836 5368837 5368795 5368796 5368797 5368796 5368815 5368814 5368815 5368816 5368724 5368725 5368724 5368723 5368755 5368756 5368757 5368756 5368731 5368730 5368729 5368730 5368740 5368741 5368742 5368741 5368822 5368821 5368820 5368821 
5368709 5368709 5368709 5368709 5368709 5368709 5368709 5368709 5368709 5368709 5368709 5368709 5368709 5368709 5368709 5368709 5368709 5368709 5368709 5368709 5368768 5368769 5368770 5368769 999999 0 10737418 10737418 5368861 5368860 5368859 5368860 5368818 5368819 5368820 5368819 5368838 5368837 5368838 5368839 5368767 5368768 5368767 5368766 5368726 5368725 5368724 5368725 5368774 5368773 5368772 5368773 5368763 5368764 5368765 5368764 5368845 5368844 5368843 5368844 
5368709 5368709 5368709 5368709 5368709 5368709 5368709 5368709 5368709 5368709 5368709 5368709 5368709 5368709 5368709 5368709 5368709 5368709 5368709 5368709 5368769 5368770 5368771 5368770 10737418 999999 0 10737418 5368862 5368861 5368860 5368861 5368819 5368820 5368821 5368820 5368839 5368838 5368839 5368840 5368768 5368769 5368768 5368767 5368727 5368726 5368725 5368726 5368775 5368774 5368773 5368774 5368764 5368765 5368766 5368765 5368846 5368845 5368844 5368845 
5368709 5368709 5368709 5368709 5368709 5368709 5368709 5368709 5368709 5368709 5368709 5368709 5368709 5368709 5368709 5368709 5368709 5368709 5368709 5368709 5368770 5368771 5368772 5368771 10737418 10737418 999999 0 5368863 5368862 5368861 5368862 5368820 5368821 5368822 5368821 5368840 5368839 5368840 5368841 5368769 5368770 5368769 5368768 5368728 5368727 5368726 5368727 5368776 5368775 5368774 5368775 5368765 5368766 5368767 5368766 5368847 5368846 5368845 5368846 
5368709 5368709 5368709 5368709 5368709 5368709 5368709 5368709 5368709 5368709 5368709 5368709 5368709 5368709 5368709 5368709 5368709 5368709 5368709 5368709 5368769 5368770 5368771 5368770 0 10737418 10737418 999999 5368862 5368861 5368860 5368861 5368819 5368820 5368821 5368820 5368839 5368838 5368839 5368840 5368768 5368769 5368768 5368767 5368727 5368726 5368725 5368726 5368775 5368774 5368773 5368774 5368764 5368765 5368766 5368765 5368846 5368845 5368844 5368845 
5368709 5368709 5368709 5368709 5368709 5368709 5368709 5368709 5368709 5368709 5368709 5368709 5368709 5368709 5368709 5368709 5368709 5368709 5368709 5368709 5368835 5368836 5368837 5368836 5368861 5368862 5368861 5368860 999999 0 10737418 10737418 5368753 5368752 5368751 5368752 5368751 5368750 5368751 5368752 5368834 5368835 5368834 5368833 5368845 5368846 5368847 5368846 5368841 5368840 5368839 5368840 5368808 5368809 5368810 5368809 5368728 5368729 5368728 5368727 
5368709 5368709 5368709 5368709 5368709 5368709 5368709 5368709 5368709 5368709 5368709 5368709 5368709 5368709 5368709 5368709 5368709 5368709 5368709 5368709 5368836 5368837 5368838 5368837 5368862 5368863 5368862 5368861 10737418 999999 0 10737418 5368754 5368753 5368752 5368753 5368752 5368751 5368752 5368753 5368835 5368836 5368835 5368834 5368846 5368847 5368848 5368847 5368842 5368841 5368840 5368841 5368809 5368810 5368811 5368810 5368729 5368730 5368729 5368728 
5368709 5368709 5368709 5368709 5368709 5368709 5368709 5368709 5368709 5368709 5368709 5368709 5368709 5368709 5368709 5368709 5368709 5368709 5368709 5368709 5368835 5368836 5368837 5368836 5368861 5368862 5368861 5368860 10737418 10737418 999999 0 5368753 5368752 5368751 5368752 5368751 5368750 5368751 5368752 5368834 5368835 5368834 5368833 5368845 5368846 5368847 5368846 5368841 5368840 5368839 5368840 5368808 5368809 5368810 5368809 5368728 5368729 5368728 5368727 
5368709 5368709 5368709 5368709 5368709 5368709 5368709 5368709 5368709 5368709 5368709 5368709 5368709 5368709 5368709 5368709 5368709 5368709 5368709 5368709 5368834 5368835 5368836 5368835 5368860 5368861 5368860 5368859 0 10737418 10737418 999999 5368752 5368751 5368750 5368751 5368750 5368749 5368750 5368751 5368833 5368834 5368833 5368832 5368844 5368845 5368846 5368845 5368840 5368839 5368838 5368839 5368807 5368808 5368809 5368808 5368727 5368728 5368727 5368726 
5368709 5368709 5368709 5368709 5368709 5368709 5368709 5368709 5368709 5368709 5368709 5368709 5368709 5368709 5368709 5368709 5368709 5368709 5368709 5368709 5368794 5368795 5368796 5368795 5368820 5368821 5368820 5368819 5368753 5368752 5368751 5368752 999999 0 10737418 10737418 5368730 5368729 5368730 5368731 5368793 5368794 5368793 5368792 5368804 5368805 5368806 5368805 5368800 5368799 5368798 5368799 5368767 5368768 5368769 5368768 5368737 5368736 5368735 5368736 
5368709 5368709 5368709 5368709 5368709 5368709 5368709 5368709 5368709 5368709 5368709 5368709 5368709 5368709 5368709 5368709 5368709 5368709 5368709 5368709 5368793 5368794 5368795 5368794 5368819 5368820 5368819 5368818 5368754 5368753 5368752 5368753 10737418 999999 0 10737418 5368731 5368730 5368731 5368732 5368792 5368793 5368792 5368791 5368803 5368804 5368805 5368804 5368799 5368798 5368797 5368798 5368766 5368767 5368768 5368767 5368738 5368737 5368736 5368737 
5368709 5368709 5368709 5368709 5368709 5368709 5368709 5368709 5368709 5368709 5368709 5368709 5368709 5368709 5368709 5368709 5368709 5368709 5368709 5368709 5368794 5368795 5368796 5368795 5368820 5368821 5368820 5368819 5368753 5368752 5368751 5368752 10737418 10737418 999999 0 5368730 5368729 5368730 5368731 5368793 5368794 5368793 5368792 5368804 5368805 5368806 5368805 5368800 5368799 5368798 5368799 5368767 5368768 5368769 5368768 5368737 5368736 5368735 5368736 
5368709 5368709 5368709 5368709 5368709 5368709 5368709 5368709 5368709 5368709 5368709 5368709 5368709 5368709 5368709 5368709 5368709 5368709 5368709 5368709 5368795 5368796 5368797 5368796 5368821 5368822 5368821 5368820 5368752 5368751 5368750 5368751 0 10737418 10737418 999999 5368729 5368728 5368729 5368730 5368794 5368795 5368794 5368793 5368805 5368806 5368807 5368806 5368801 5368800 5368799 5368800 5368768 5368769 5368770 5368769 5368736 5368735 5368734 5368735 
5368709 5368709 5368709 5368709 5368709 5368709 5368709 5368709 5368709 5368709 5368709 5368709 5368709 5368709 5368709 5368709 5368709 5368709 5368709 5368709 5368814 5368815 5368816 5368815 5368840 5368841 5368840 5368839 5368753 5368752 5368751 5368752 5368732 5368731 5368730 5368731 999999 0 10737418 10737418 5368813 5368814 5368813 5368812 5368824 5368825 5368826 5368825 5368820 5368819 5368818 5368819 5368787 5368788 5368789 5368788 5368737 5368736 5368735 5368736 
5368709 5368709 5368709 5368709 5368709 5368709 5368709 5368709 5368709 5368709 5368709 5368709 5368709 5368709 5368709 5368709 5368709 5368709 5368709 5368709 5368813 5368814 5368815 5368814 5368839 5368840 5368839 5368838 5368752 5368751 5368750 5368751 5368731 5368730 5368729 5368730 10737418 999999 0 10737418 5368812 5368813 5368812 5368811 5368823 5368824 5368825 5368824 5368819 5368818 5368817 5368818 5368786 5368787 5368788 5368787 5368736 5368735 5368734 5368735 
5368709 5368709 5368709 5368709 5368709 5368709 5368709 5368709 5368709 5368709 5368709 5368709 5368709 5368709 5368709 5368709 5368709 5368709 5368709 5368709 5368812 5368813 5368814 5368813 5368838 5368839 5368838 5368837 5368751 5368750 5368749 5368750 5368730 5368729 5368728 5368729 10737418 10737418 999999 0 5368811 5368812 5368811 5368810 5368822 5368823 5368824 5368823 5368818 5368817 5368816 5368817 5368785 5368786 5368787 5368786 5368735 5368734 5368733 5368734 
5368709 5368709 5368709 5368709 5368709 5368709 5368709 5368709 5368709 5368709 5368709 5368709 5368709 5368709 5368709 5368709 5368709 5368709 5368709 5368709 5368813 5368814 5368815 5368814 5368839 5368840 5368839 5368838 5368752 5368751 5368750 5368751 5368731 5368730 5368729 5368730 0 10737418 10737418 999999 5368812 5368813 5368812 5368811 5368823 5368824 5368825 5368824 5368819 5368818 5368817 5368818 5368786 5368787 5368788 5368787 5368736 5368735 5368734 5368735 
5368709 5368709 5368709 5368709 5368709 5368709 5368709 5368709 5368709 5368709 5368709 5368709 5368709 5368709 5368709 5368709 5368709 5368709 5368709 5368709 5368721 5368722 5368723 5368722 5368767 5368768 5368767 5368766 5368834 5368833 5368832 5368833 5368791 5368792 5368793 5368792 5368811 5368810 5368811 5368812 999999 0 10737418 10737418 5368751 5368752 5368753 5368752 5368719 5368718 5368717 5368718 5368736 5368737 5368738 5368737 5368818 5368817 5368816 5368817 
5368709 5368709 5368709 5368709 5368709 5368709 5368709 5368709 5368709 5368709 5368709 5368709 5368709 5368709 5368709 5368709 5368709 5368709 5368709 5368709 5368722 5368723 5368724 5368723 5368768 5368769 5368768 5368767 5368835 5368834 5368833 5368834 5368792 5368793 5368794 5368793 5368812 5368811 5368812 5368813 10737418 999999 0 10737418 5368752 5368753 5368754 5368753 5368718 5368717 5368716 5368717 5368737 5368738 5368739 5368738 5368819 5368818 5368817 5368818 
5368709 5368709 5368709 5368709 5368709 5368709 5368709 5368709 5368709 5368709 5368709 5368709 5368709 5368709 5368709 5368709 5368709 5368709 5368709 5368709 5368723 5368724 5368725 5368724 5368769 5368770 5368769 5368768 5368836 5368835 5368834 5368835 5368793 5368794 5368795 5368794 5368813 5368812 5368813 5368814 10737418 10737418 999999 0 5368753 5368754 5368755 5368754 5368717 5368716 5368715 5368716 5368738 5368739 5368740 5368739 5368820 5368819 5368818 5368819 
5368709 5368709 5368709 5368709 5368709 5368709 5368709 5368709 5368709 5368709 5368709 5368709 5368709 5368709 5368709 5368709 5368709 5368709 5368709 5368709 5368722 5368723 5368724 5368723 5368768 5368769 5368768 5368767 5368835 5368834 5368833 5368834 5368792 5368793 5368794 5368793 5368812 5368811 5368812 5368813 0 10737418 10737418 999999 5368752 5368753 5368754 5368753 5368718 5368717 5368716 5368717 5368737 5368738 5368739 5368738 5368819 5368818 5368817 5368818 
5368709 5368709 5368709 5368709 5368709 5368709 5368709 5368709 5368709 5368709 5368709 5368709 5368709 5368709 5368709 5368709 5368709 5368709 5368709 5368709 5368754 5368755 5368756 5368755 5368726 5368727 5368726 5368725 5368847 5368846 5368845 5368846 5368804 5368805 5368806 5368805 5368824 5368823 5368824 5368825 5368753 5368754 5368753 5368752 999999 0 10737418 10737418 5368760 5368759 5368758 5368759 5368749 5368750 5368751 5368750 5368831 5368830 5368829 5368830 
5368709 5368709 5368709 5368709 5368709 5368709 5368709 5368709 5368709 5368709 5368709 5368709 5368709 5368709 5368709 5368709 5368709 5368709 5368709 5368709 5368753 5368754 5368755 5368754 5368727 5368728 5368727 5368726 5368846 5368845 5368844 5368845 5368803 5368804 5368805 5368804 5368823 5368822 5368823 5368824 5368752 5368753 5368752 5368751 10737418 999999 0 10737418 5368759 5368758 5368757 5368758 5368748 5368749 5368750 5368749 5368830 5368829 5368828 5368829 
5368709 5368709 5368709 5368709 5368709 5368709 5368709 5368709 5368709 5368709 5368709 5368709 5368709 5368709 5368709 5368709 5368709 5368709 5368709 5368709 5368754 5368755 5368756 5368755 5368726 5368727 5368726 5368725 5368847 5368846 5368845 5368846 5368804 5368805 5368806 5368805 5368824 5368823 5368824 5368825 5368753 5368754 5368753 5368752 10737418 10737418 999999 0 5368760 5368759 5368758 5368759 5368749 5368750 5368751 5368750 5368831 5368830 5368829 5368830 
5368709 5368709 5368709 5368709 5368709 5368709 5368709 5368709 5368709 5368709 5368709 5368709 5368709 5368709 5368709 5368709 5368709 5368709 5368709 5368709 5368755 5368756 5368757 5368756 5368725 5368726 5368725 5368724 5368848 5368847 5368846 5368847 5368805 5368806 5368807 5368806 5368825 5368824 5368825 5368826 5368754 5368755 5368754 5368753 0 10737418 10737418 999999 5368761 5368760 5368759 5368760 5368750 5368751 5368752 5368751 5368832 5368831 5368830 5368831 
5368709 5368709 5368709 5368709 5368709 5368709 5368709 5368709 5368709 5368709 5368709 5368709 5368709 5368709 5368709 5368709 5368709 5368709 5368709 5368709 5368728 5368729 5368730 5368729 5368774 5368775 5368774 5368773 5368841 5368840 5368839 5368840 5368798 5368799 5368800 5368799 5368818 5368817 5368818 5368819 5368717 5368716 5368717 5368718 5368758 5368759 5368760 5368759 999999 0 10737418 10737418 5368743 5368744 5368745 5368744 5368825 5368824 5368823 5368824 
5368709 5368709 5368709 5368709 5368709 5368709 5368709 5368709 5368709 5368709 5368709 5368709 5368709 5368709 5368709 5368709 5368709 5368709 5368709 5368709 5368729 5368730 5368731 5368730 5368775 5368776 5368775 5368774 5368842 5368841 5368840 5368841 5368799 5368800 5368801 5368800 5368819 5368818 5368819 5368820 5368718 5368717 5368718 5368719 5368759 5368760 5368761 5368760 10737418 999999 0 10737418 5368744 5368745 5368746 5368745 5368826 5368825 5368824 5368825 
5368709 5368709 5368709 5368709 5368709 5368709 5368709 5368709 5368709 5368709 5368709 5368709 5368709 5368709 5368709 5368709 5368709 5368709 5368709 5368709 5368728 5368729 5368730 5368729 5368774 5368775 5368774 5368773 5368841 5368840 5368839 5368840 5368798 5368799 5368800 5368799 5368818 5368817 5368818 5368819 5368717 5368716 5368717 5368718 5368758 5368759 5368760 5368759 10737418 10737418 999999 0 5368743 5368744 5368745 5368744 5368825 5368824 5368823 5368824 
5368709 5368709 5368709 5368709 5368709 5368709 5368709 5368709 5368709 5368709 5368709 5368709 5368709 5368709 5368709 5368709 5368709 5368709 5368709 5368709 5368727 5368728 5368729 5368728 5368773 5368774 5368773 5368772 5368840 5368839 5368838 5368839 5368797 5368798 5368799 5368798 5368817 5368816 5368817 5368818 5368716 5368715 5368716 5368717 5368757 5368758 5368759 5368758 0 10737418 10737418 999999 5368742 5368743 5368744 5368743 5368824 5368823 5368822 5368823 
5368709 5368709 5368709 5368709 5368709 5368709 5368709 5368709 5368709 5368709 5368709 5368709 5368709 5368709 5368709 5368709 5368709 5368709 5368709 5368709 5368739 5368740 5368741 5368740 5368765 5368766 5368765 5368764 5368810 5368809 5368808 5368809 5368767 5368768 5368769 5368768 5368787 5368786 5368787 5368788 5368738 5368739 5368738 5368737 5368749 5368750 5368751 5368750 5368745 5368744 5368743 5368744 999999 0 10737418 10737418 5368794 5368793 5368792 5368793 
5368709 5368709 5368709 5368709 5368709 5368709 5368709 5368709 5368709 5368709 5368709 5368709 5368709 5368709 5368709 5368709 5368709 5368709 5368709 5368709 5368738 5368739 5368740 5368739 5368764 5368765 5368764 5368763 5368809 5368808 5368807 5368808 5368766 5368767 5368768 5368767 5368786 5368785 5368786 5368787 5368737 5368738 5368737 5368736 5368748 5368749 5368750 5368749 5368744 5368743 5368742 5368743 10737418 999999 0 10737418 5368793 5368792 5368791 5368792 
5368709 5368709 5368709 5368709 5368709 5368709 5368709 5368709 5368709 5368709 5368709 5368709 5368709 5368709 5368709 5368709 5368709 5368709 5368709 5368709 5368739 5368740 5368741 5368740 5368765 5368766 5368765 5368764 5368810 5368809 5368808 5368809 5368767 5368768 5368769 5368768 5368787 5368786 5368787 5368788 5368738 5368739 5368738 5368737 5368749 5368750 5368751 5368750 5368745 5368744 5368743 5368744 10737418 10737418 999999 0 5368794 5368793 5368792 5368793 
5368709 5368709 5368709 5368709 5368709 5368709 5368709 5368709 5368709 5368709 5368709 5368709 5368709 5368709 5368709 5368709 5368709 5368709 5368709 5368709 5368740 5368741 5368742 5368741 5368766 5368767 5368766 5368765 5368811 5368810 5368809 5368810 5368768 5368769 5368770 5368769 5368788 5368787 5368788 5368789 5368739 5368740 5368739 5368738 5368750 5368751 5368752 5368751 5368746 5368745 5368744 5368745 0 10737418 10737418 999999 5368795 5368794 5368793 5368794 
5368709 5368709 5368709 5368709 5368709 5368709 5368709 5368709 5368709 5368709 5368709 5368709 5368709 5368709 5368709 5368709 5368709 5368709 5368709 5368709 5368819 5368820 5368821 5368820 5368845 5368846 5368845 5368844 5368728 5368727 5368726 5368727 5368737 5368736 5368735 5368736 5368735 5368734 5368735 5368736 5368818 5368819 5368818 5368817 5368829 5368830 5368831 5368830 5368825 5368824 5368823 5368824 5368792 5368793 5368794 5368793 999999 0 10737418 10737418 
5368709 5368709 5368709 5368709 5368709 5368709 5368709 5368709 5368709 5368709 5368709 5368709 5368709 5368709 5368709 5368709 5368709 5368709 5368709 5368709 5368820 5368821 5368822 5368821 5368846 5368847 5368846 5368845 5368729 5368728 5368727 5368728 5368738 5368737 5368736 5368737 5368736 5368735 5368736 5368737 5368819 5368820 5368819 5368818 5368830 5368831 5368832 5368831 5368826 5368825 5368824 5368825 5368793 5368794 5368795 5368794 10737418 999999 0 10737418 
5368709 5368709 5368709 5368709 5368709 5368709 5368709 5368709 5368709 5368709 5368709 5368709 5368709 5368709 5368709 5368709 5368709 5368709 5368709 5368709 5368819 5368820 5368821 5368820 5368845 5368846 5368845 5368844 5368730 5368729 5368728 5368729 5368737 5368736 5368735 5368736 5368735 5368734 5368735 5368736 5368818 5368819 5368818 5368817 5368829 5368830 5368831 5368830 5368825 5368824 5368823 5368824 5368792 5368793 5368794 5368793 10737418 10737418 999999 0 
5368709 5368709 5368709 5368709 5368709 5368709 5368709 5368709 5368709 5368709 5368709 5368709 5368709 5368709 5368709 5368709 5368709 5368709 5368709 5368709 5368818 5368819 5368820 5368819 5368844 5368845 5368844 5368843 5368729 5368728 5368727 5368728 5368736 5368735 5368734 5368735 5368734 5368733 5368734 5368735 5368817 5368818 5368817 5368816 5368828 5368829 5368830 5368829 5368824 5368823 5368822 5368823 5368791 5368792 5368793 5368792 0 10737418 10737418 999999 
EOF
