GLKH-1.1/TMP/mEgtspf.pid9130.tour
NAME : mEgtspf.pid9130.gtsp.161061355.tour
COMMENT : Length = 161061355
COMMENT : Found by LKH [Keld Helsgaun] Wed Apr  2 16:24:39 2025
TYPE : TOUR
DIMENSION : 60
TOUR_SECTION
1
13
6
22
23
24
21
11
29
30
31
32
60
57
58
59
4
20
38
39
40
37
16
5
44
41
42
43
9
53
54
55
56
19
10
14
15
3
17
7
8
49
50
51
52
18
28
25
26
27
2
47
48
45
46
12
34
35
36
33
-1
EOF
